0 1459
1 1435
2 1418
3 1399
4 1387
5 1371
6 1360
7 1344
8 1336
9 1326
10 1320
11 1313
12 1307
13 1304
14 1297
15 1294
16 1289
17 1284
18 1280
19 1278
20 1275
21 1269
22 1266
23 1259
24 1257
25 1254
26 1252
27 1248
28 1241
29 1238
30 1234
31 1231
32 1230
33 1224
34 1220
35 1218
36 1214
37 1207
38 1203
39 1202
40 1199
41 1195
42 1193
43 1190
44 1189
45 1186
46 1184
47 1178
48 1175
49 1173
50 1171
51 1168
52 1165
53 1163
54 1154
55 1153
56 1151
57 1149
58 1147
59 1145
60 1143
61 1140
62 1140
63 1137
64 1134
65 1131
66 1127
67 1126
68 1124
69 1122
70 1120
71 1117
72 1114
73 1110
74 1106
75 1105
76 1104
77 1102
78 1101
79 1099
80 1097
81 1096
82 1093
83 1091
84 1089
85 1088
86 1085
87 1084
88 1083
89 1082
90 1080
91 1079
92 1077
93 1075
94 1071
95 1070
96 1069
97 1066
98 1064
99 1062
100 1058
101 1054
102 1050
103 1048
104 1047
105 1044
106 1041
107 1039
108 1038
109 1038
110 1036
111 1033
112 1033
113 1031
114 1029
115 1029
116 1027
117 1027
118 1024
119 1020
120 1018
121 1017
122 1014
123 1010
124 1009
125 1008
126 1006
127 1005
128 1002
129 1001
130 1000
131 999
132 998
133 995
134 995
135 994
136 991
137 990
138 988
139 988
140 987
141 984
142 982
143 980
144 980
145 978
146 977
147 975
148 974
149 972
150 969
151 968
152 966
153 966
154 965
155 963
156 963
157 963
158 963
159 962
160 961
161 960
162 959
163 956
164 955
165 951
166 948
167 948
168 947
169 945
170 944
171 941
172 941
173 940
174 939
175 939
176 938
177 937
178 937
179 936
180 935
181 934
182 933
183 932
184 932
185 930
186 930
187 930
188 929
189 928
190 927
191 925
192 925
193 925
194 924
195 923
196 920
197 920
198 920
199 919
200 919
201 919
202 918
203 917
204 917
205 916
206 915
207 914
208 914
209 914
210 913
211 913
212 913
213 910
214 910
215 909
216 908
217 907
218 905
219 904
220 904
221 903
222 903
223 902
224 902
225 901
226 900
227 899
228 899
229 897
230 896
231 895
232 895
233 894
234 894
235 893
236 893
237 892
238 891
239 890
240 888
241 887
242 886
243 885
244 885
245 885
246 884
247 883
248 882
249 882
250 880
251 879
252 879
253 878
254 878
255 878
256 877
257 876
258 875
259 874
260 874
261 874
262 874
263 873
264 872
265 872
266 871
267 871
268 870
269 870
270 869
271 869
272 868
273 868
274 867
275 866
276 866
277 865
278 864
279 863
280 863
281 862
282 862
283 862
284 862
285 861
286 861
287 861
288 861
289 861
290 860
291 860
292 859
293 859
294 859
295 858
296 857
297 857
298 856
299 855
300 853
301 852
302 852
303 852
304 852
305 851
306 850
307 849
308 848
309 847
310 847
311 847
312 847
313 847
314 846
315 846
316 846
317 845
318 845
319 844
320 843
321 843
322 843
323 841
324 841
325 840
326 840
327 840
328 838
329 837
330 836
331 836
332 835
333 833
334 833
335 833
336 833
337 832
338 831
339 831
340 829
341 828
342 827
343 826
344 826
345 825
346 824
347 824
348 824
349 824
350 824
351 823
352 823
353 822
354 822
355 822
356 821
357 821
358 820
359 820
360 820
361 819
362 819
363 819
364 818
365 817
366 816
367 816
368 815
369 815
370 814
371 814
372 814
373 814
374 813
375 812
376 812
377 812
378 811
379 811
380 810
381 810
382 809
383 809
384 809
385 808
386 808
387 808
388 808
389 808
390 808
391 808
392 808
393 808
394 807
395 807
396 807
397 805
398 805
399 804
400 804
401 804
402 804
403 804
404 803
405 803
406 803
407 802
408 802
409 801
410 801
411 801
412 801
413 801
414 801
415 800
416 800
417 800
418 799
419 798
420 797
421 797
422 795
423 795
424 795
425 795
426 795
427 795
428 794
429 794
430 794
431 793
432 793
433 793
434 793
435 792
436 792
437 792
438 792
439 792
440 792
441 791
442 791
443 791
444 791
445 791
446 791
447 791
448 790
449 790
450 790
451 790
452 790
453 790
454 789
455 789
456 788
457 788
458 788
459 787
460 787
461 786
462 786
463 785
464 785
465 784
466 784
467 783
468 782
469 782
470 782
471 782
472 781
473 781
474 781
475 781
476 781
477 781
478 780
479 779
480 779
481 779
482 778
483 778
484 778
485 778
486 778
487 778
488 778
489 778
490 778
491 777
492 777
493 777
494 777
495 776
496 775
497 775
498 775
499 775
500 775
501 774
502 773
503 772
504 771
505 771
506 771
507 771
508 770
509 770
510 769
511 768
512 768
513 768
514 766
515 766
516 766
517 766
518 765
519 765
520 765
521 765
522 764
523 764
524 764
525 764
526 763
527 763
528 763
529 763
530 763
531 762
532 761
533 761
534 760
535 760
536 759
537 759
538 759
539 759
540 759
541 759
542 759
543 759
544 758
545 758
546 758
547 757
548 756
549 756
550 755
551 755
552 755
553 755
554 755
555 755
556 755
557 755
558 754
559 754
560 754
561 753
562 753
563 753
564 753
565 753
566 752
567 752
568 752
569 752
570 752
571 752
572 751
573 751
574 751
575 750
576 750
577 750
578 749
579 749
580 749
581 749
582 749
583 749
584 749
585 748
586 748
587 748
588 748
589 748
590 747
591 747
592 746
593 746
594 746
595 746
596 746
597 746
598 746
599 745
600 745
601 745
602 744
603 744
604 743
605 743
606 743
607 743
608 743
609 743
610 743
611 743
612 743
613 743
614 743
615 743
616 742
617 742
618 742
619 742
620 742
621 740
622 740
623 740
624 740
625 740
626 740
627 740
628 740
629 739
630 739
631 739
632 739
633 739
634 739
635 739
636 738
637 738
638 738
639 737
640 737
641 737
642 737
643 737
644 737
645 737
646 736
647 736
648 736
649 736
650 736
651 736
652 736
653 735
654 735
655 734
656 734
657 734
658 734
659 734
660 733
661 733
662 733
663 733
664 733
665 732
666 732
667 731
668 731
669 731
670 731
671 731
672 730
673 730
674 730
675 730
676 729
677 729
678 728
679 728
680 728
681 727
682 727
683 727
684 727
685 727
686 727
687 727
688 726
689 726
690 726
691 726
692 726
693 725
694 725
695 725
696 724
697 724
698 724
699 724
700 723
701 723
702 723
703 723
704 723
705 722
706 722
707 722
708 722
709 722
710 722
711 722
712 721
713 721
714 721
715 721
716 719
717 719
718 719
719 719
720 719
721 719
722 719
723 719
724 718
725 718
726 718
727 718
728 718
729 718
730 717
731 717
732 717
733 717
734 717
735 717
736 717
737 715
738 715
739 715
740 715
741 715
742 715
743 715
744 715
745 715
746 715
747 715
748 714
749 714
750 714
751 714
752 714
753 713
754 713
755 712
756 712
757 712
758 712
759 712
760 712
761 712
762 712
763 712
764 712
765 711
766 711
767 711
768 711
769 711
770 711
771 711
772 711
773 711
774 711
775 711
776 711
777 710
778 710
779 710
780 710
781 710
782 710
783 709
784 709
785 709
786 709
787 709
788 709
789 709
790 709
791 709
792 709
793 709
794 709
795 709
796 708
797 708
798 708
799 708
800 708
801 708
802 707
803 707
804 707
805 707
806 707
807 706
808 706
809 706
810 706
811 706
812 705
813 705
814 705
815 705
816 705
817 705
818 705
819 705
820 705
821 705
822 705
823 704
824 704
825 704
826 704
827 704
828 704
829 704
830 704
831 704
832 703
833 703
834 703
835 703
836 703
837 703
838 703
839 703
840 703
841 703
842 703
843 703
844 703
845 702
846 702
847 702
848 701
849 701
850 701
851 701
852 701
853 701
854 701
855 701
856 701
857 701
858 701
859 701
860 701
861 701
862 700
863 700
864 700
865 700
866 700
867 700
868 700
869 699
870 699
871 699
872 699
873 699
874 699
875 699
876 698
877 698
878 698
879 698
880 698
881 698
882 698
883 698
884 698
885 698
886 698
887 697
888 697
889 697
890 697
891 697
892 697
893 697
894 697
895 697
896 696
897 696
898 696
899 696
900 696
901 696
902 696
903 696
904 695
905 695
906 695
907 695
908 695
909 695
910 695
911 694
912 694
913 694
914 694
915 694
916 694
917 694
918 694
919 693
920 693
921 693
922 693
923 693
924 693
925 693
926 693
927 693
928 693
929 693
930 693
931 693
932 693
933 693
934 693
935 692
936 692
937 692
938 692
939 692
940 692
941 692
942 692
943 692
944 692
945 692
946 692
947 692
948 691
949 691
950 691
951 691
952 691
953 691
954 691
955 691
956 690
957 690
958 690
959 690
960 690
961 690
962 690
963 690
964 690
965 689
966 689
967 689
968 689
969 689
970 689
971 689
972 688
973 688
974 688
975 688
976 688
977 688
978 688
979 688
980 688
981 687
982 687
983 687
984 687
985 687
986 687
987 687
988 687
989 686
990 686
991 686
992 686
993 686
994 686
995 686
996 686
997 685
998 685
999 685
